\* Source Pyomo model name=unknown *\

min 
x43:
+0 x1
+0 x10
+0 x11
+0 x12
+0.00099572512199049934 x13
+0.021459581738923629 x14
+0.00096568336527060668 x15
+0.0010288092195090952 x16
+0.0010440289383871458 x17
+0.0010181832013025677 x2
+0 x3
+0.001001144285105809 x4
+0.0010043579873367479 x5
+0.0010157399713318317 x6
+0.0010024064515871092 x7
+0.011563609873102345 x8
+0.05939148975028756 x9

s.t.

c_e_x44_:
+1 x14
-1 x18
= 0

c_e_x45_:
-1 x19
+1 x8
= 0

c_e_x46_:
-1 x20
+1 x9
= 0

c_e_x47_:
-0.52249037937473486 x34
+1 x4
= 0

c_e_x48_:
+1 x2
-0.76076814405374327 x35
= 0

c_e_x49_:
-0.83161673200497366 x36
+1 x5
= 0

c_e_x50_:
+1 x15
-0.92611946407215018 x37
= 0

c_e_x51_:
-0.090663983250462307 x38
+1 x6
= 0

c_e_x52_:
+1 x13
-0.692300732093452 x39
= 0

c_e_x53_:
-0.70694915489505739 x40
+1 x7
= 0

c_e_x54_:
+1 x16
-1.5242853281366298 x41
= 0

c_e_x55_:
-1 x18
+1 x34
= 0

c_e_x56_:
-1 x28
+1 x35
= 0

c_e_x57_:
-1 x20
+1 x36
= 0

c_e_x58_:
-1 x19
+1 x37
= 0

c_e_x59_:
-1 x24
+1 x38
= 0

c_e_x60_:
-1 x25
+1 x39
= 0

c_e_x61_:
-1 x26
+1 x40
= 0

c_e_x62_:
-1 x27
+1 x41
= 0

c_e_x63_:
-1 x18
+1 x34
= 0

c_e_x64_:
-1 x19
+1 x37
= 0

c_e_x65_:
-1 x20
+1 x36
= 0

c_e_x66_:
-1 x24
+1 x38
= 0

c_e_x67_:
-1 x25
+1 x39
= 0

c_e_x68_:
-1 x26
+1 x40
= 0

c_e_x69_:
-1 x27
+1 x41
= 0

c_e_x70_:
-1 x28
+1 x35
= 0

c_e_x71_:
-1 x21
+1 x4
= 0

c_e_x72_:
+1 x15
-1 x22
= 0

c_e_x73_:
-1 x23
+1 x5
= 0

c_e_x74_:
-1 x29
+1 x6
= 0

c_e_x75_:
+1 x13
-1 x30
= 0

c_e_x76_:
-1 x31
+1 x7
= 0

c_e_x77_:
+1 x16
-1 x32
= 0

c_e_x78_:
+1 x2
-1 x33
= 0

c_e_x79_:
+1 x33
= 885.62722307768274

c_e_x80_:
+1 x29
= 7.8780052424864468

c_e_x81_:
+1 x30
= 24.659206553702866

c_e_x82_:
+1 x31
= 137.00899902628791

c_e_x83_:
+1 x32
= 431.41641015407231

c_e_x84_:
+1 x10
-1 x33
= 0

c_e_x85_:
+1 x11
-1 x29
= 0

c_e_x86_:
+1 x1
-1 x30
= 0

c_e_x87_:
+1 x12
-1 x31
= 0

c_e_x88_:
+1 x3
-1 x32
= 0

c_e_x89_:
+1 x21
+1 x22
+1 x23
-1 x24
-1 x25
-1 x26
-1 x27
-1 x28
= 0

c_e_x90_:
+1 x17
-1 x21
-1 x22
-1 x23
= 0

c_e_x91_:
+0 x14
-1 x42
+0.073200000000000001 x8
+0 x9
= 0

c_u_x92_:
+1 x42
<= 872.13999999999999

c_e_ONE_VAR_CONSTANT: 
ONE_VAR_CONSTANT = 1.0

bounds
   0 <= x1 <= +inf
   0 <= x2 <= 999999
   0 <= x3 <= +inf
   0 <= x4 <= 999999
   0 <= x5 <= 999999
   0 <= x6 <= 999999
   0 <= x7 <= 999999
   0 <= x8 <= +inf
   0 <= x9 <= +inf
   0 <= x10 <= +inf
   0 <= x11 <= +inf
   0 <= x12 <= +inf
   0 <= x13 <= 999999
   431.70997319523087 <= x14 <= 431.70997319523087
   0 <= x15 <= 999999
   0 <= x16 <= 999999
   0 <= x17 <= +inf
   0 <= x18 <= +inf
   0 <= x19 <= +inf
   0 <= x20 <= +inf
   0 <= x21 <= +inf
   0 <= x22 <= +inf
   0 <= x23 <= +inf
   0 <= x24 <= +inf
   0 <= x25 <= +inf
   0 <= x26 <= +inf
   0 <= x27 <= +inf
   0 <= x28 <= +inf
   0 <= x29 <= +inf
   0 <= x30 <= +inf
   0 <= x31 <= +inf
   0 <= x32 <= +inf
   0 <= x33 <= +inf
   0 <= x34 <= +inf
   0 <= x35 <= +inf
   0 <= x36 <= +inf
   0 <= x37 <= +inf
   0 <= x38 <= +inf
   0 <= x39 <= +inf
   0 <= x40 <= +inf
   0 <= x41 <= +inf
   0 <= x42 <= +inf
end
